(set-info :source |printed by MathSAT|)
(declare-fun A_9 () Int)
(declare-fun .x.340 () Int)
(declare-fun B_9 () (Array Int Int))
(declare-fun .x.341 () (Array Int Int))
(declare-fun C_9 () (Array Int Int))
(declare-fun .x.342 () (Array Int Int))
(declare-fun D_9 () (Array Int (Array Int Int)))
(declare-fun .x.343 () (Array Int (Array Int Int)))
(declare-fun E_9 () (Array Int (Array Int Int)))
(declare-fun .x.344 () (Array Int (Array Int Int)))
(declare-fun F_9 () Int)
(declare-fun .x.345 () Int)
(declare-fun G_9 () Int)
(declare-fun .x.346 () Int)
(declare-fun H_9 () (Array Int Int))
(declare-fun .x.347 () (Array Int Int))
(declare-fun I_9 () (Array Int Int))
(declare-fun .x.348 () (Array Int Int))
(declare-fun J_9 () Int)
(declare-fun .x.349 () Int)
(declare-fun K_9 () Int)
(declare-fun .x.350 () Int)
(declare-fun L_9 () Int)
(declare-fun .x.351 () Int)
(declare-fun D1_5 () Int)
(declare-fun .x.352 () Int)
(declare-fun N_9 () Int)
(declare-fun .x.353 () Int)
(declare-fun O_9 () Int)
(declare-fun .x.354 () Int)
(declare-fun P_9 () Int)
(declare-fun .x.355 () Int)
(declare-fun Q_9 () Int)
(declare-fun .x.356 () Int)
(declare-fun R_9 () Int)
(declare-fun .x.357 () Int)
(declare-fun S_9 () Int)
(declare-fun .x.358 () Int)
(declare-fun T_9 () Int)
(declare-fun .x.359 () Int)
(declare-fun U_9 () Int)
(declare-fun .x.360 () Int)
(declare-fun V_9 () Int)
(declare-fun .x.361 () Int)
(declare-fun W_9 () Int)
(declare-fun .x.362 () Int)
(declare-fun X_9 () Int)
(declare-fun .x.363 () Int)
(declare-fun E1_5 () Int)
(declare-fun .x.364 () Int)
(declare-fun Z_9 () Int)
(declare-fun .x.365 () Int)
(declare-fun A1_9 () Int)
(declare-fun .x.366 () Int)
(declare-fun B1_9 () Int)
(declare-fun .x.367 () Int)
(declare-fun C1_9 () Bool)
(declare-fun C1_12 () Bool)
(declare-fun .loc.4 () Bool)
(declare-fun .loc.7 () Bool)
(declare-fun .loc.5 () Bool)
(declare-fun .loc.8 () Bool)
(declare-fun .loc.6 () Bool)
(declare-fun .loc.9 () Bool)
(declare-fun D1_0 () (Array Int Int))
(define-fun .def_8 () Int (! A_9 :next |.x.340|))
(define-fun .def_10 () (Array Int Int) (! B_9 :next |.x.341|))
(define-fun .def_12 () (Array Int Int) (! C_9 :next |.x.342|))
(define-fun .def_14 () (Array Int (Array Int Int)) (! D_9 :next |.x.343|))
(define-fun .def_16 () (Array Int (Array Int Int)) (! E_9 :next |.x.344|))
(define-fun .def_18 () Int (! F_9 :next |.x.345|))
(define-fun .def_20 () Int (! G_9 :next |.x.346|))
(define-fun .def_22 () (Array Int Int) (! H_9 :next |.x.347|))
(define-fun .def_24 () (Array Int Int) (! I_9 :next |.x.348|))
(define-fun .def_26 () Int (! J_9 :next |.x.349|))
(define-fun .def_28 () Int (! K_9 :next |.x.350|))
(define-fun .def_30 () Int (! L_9 :next |.x.351|))
(define-fun .def_32 () Int (! D1_5 :next |.x.352|))
(define-fun .def_34 () Int (! N_9 :next |.x.353|))
(define-fun .def_36 () Int (! O_9 :next |.x.354|))
(define-fun .def_38 () Int (! P_9 :next |.x.355|))
(define-fun .def_40 () Int (! Q_9 :next |.x.356|))
(define-fun .def_42 () Int (! R_9 :next |.x.357|))
(define-fun .def_44 () Int (! S_9 :next |.x.358|))
(define-fun .def_46 () Int (! T_9 :next |.x.359|))
(define-fun .def_48 () Int (! U_9 :next |.x.360|))
(define-fun .def_50 () Int (! V_9 :next |.x.361|))
(define-fun .def_52 () Int (! W_9 :next |.x.362|))
(define-fun .def_54 () Int (! X_9 :next |.x.363|))
(define-fun .def_56 () Int (! E1_5 :next |.x.364|))
(define-fun .def_58 () Int (! Z_9 :next |.x.365|))
(define-fun .def_60 () Int (! A1_9 :next |.x.366|))
(define-fun .def_62 () Int (! B1_9 :next |.x.367|))
(define-fun .def_64 () Bool (! C1_9 :next |C1_12|))
(define-fun .def_66 () Bool (! .loc.4 :next |.loc.7|))
(define-fun .def_68 () Bool (! .loc.5 :next |.loc.8|))
(define-fun .def_70 () Bool (! .loc.6 :next |.loc.9|))
(define-fun .def_93 () (Array Int Int) (! D1_0 :next |.xtv.1|))
(define-fun .def_77 () Bool (not .def_68))
(define-fun .def_75 () Bool (not .def_66))
(define-fun .def_467 () Bool (and .def_75 .def_77))
(define-fun .def_88 () Bool (not .def_70))
(define-fun .def_468 () Bool (and .def_88 .def_467))
(define-fun .def_461 () Bool (= .def_14 .def_16))
(define-fun .def_460 () Bool (not .def_64))
(define-fun .def_462 () Bool (and .def_460 .def_461))
(define-fun .def_459 () Bool (= .def_18 .def_20))
(define-fun .def_463 () Bool (and .def_459 .def_462))
(define-fun .def_458 () Bool (= .def_26 .def_28))
(define-fun .def_464 () Bool (and .def_458 .def_463))
(define-fun .def_457 () Bool (= .def_22 .def_24))
(define-fun .def_465 () Bool (and .def_457 .def_464))
(define-fun .def_456 () Bool (= .def_10 .def_12))
(define-fun .def_466 () Bool (and .def_456 .def_465))
(define-fun .def_469 () Bool (! (and .def_466 .def_468) :init true))
(define-fun .def_453 () Bool (= .def_28 .x.350))
(define-fun .def_451 () Bool (= .def_24 .x.348))
(define-fun .def_449 () Bool (= .def_20 .x.346))
(define-fun .def_447 () Bool (= .def_16 .x.344))
(define-fun .def_445 () Bool (= .def_8 .x.340))
(define-fun .def_444 () Bool (= .def_12 .x.342))
(define-fun .def_446 () Bool (and .def_444 .def_445))
(define-fun .def_448 () Bool (and .def_446 .def_447))
(define-fun .def_450 () Bool (and .def_448 .def_449))
(define-fun .def_452 () Bool (and .def_450 .def_451))
(define-fun .def_454 () Bool (and .def_452 .def_453))
(define-fun .def_326 () Bool (= .x.352 0))
(define-fun .def_425 () Bool (or .def_64 .def_326))
(define-fun .def_287 () Bool (= .x.352 .x.364))
(define-fun .def_286 () Bool (= .x.364 1))
(define-fun .def_288 () Bool (and .def_286 .def_287))
(define-fun .def_289 () Bool (or .def_64 .def_288))
(define-fun .def_419 () Bool (and C1_12 .def_289))
(define-fun .def_130 () Bool (= .def_10 .x.341))
(define-fun .def_420 () Bool (and .def_130 .def_419))
(define-fun .def_72 () Bool (= .def_46 .x.359))
(define-fun .def_421 () Bool (and .def_72 .def_420))
(define-fun .def_139 () Bool (= .def_48 .x.360))
(define-fun .def_422 () Bool (and .def_139 .def_421))
(define-fun .def_143 () Bool (= .def_52 .x.362))
(define-fun .def_423 () Bool (and .def_143 .def_422))
(define-fun .def_147 () Bool (= .def_58 .x.365))
(define-fun .def_424 () Bool (and .def_147 .def_423))
(define-fun .def_426 () Bool (and .def_424 .def_425))
(define-fun .def_427 () Bool (and .def_75 .def_426))
(define-fun .def_415 () Bool (= .x.362 0))
(define-fun .def_413 () (Array Int Int) (store .def_10 .def_58 0))
(define-fun .def_414 () Bool (= .x.341 .def_413))
(define-fun .def_416 () Bool (and .def_414 .def_415))
(define-fun .def_417 () Bool (or .def_64 .def_416))
(define-fun .def_407 () Bool (= .x.359 .x.362))
(define-fun .def_408 () Bool (or C1_12 .def_407))
(define-fun .def_409 () Bool (and .def_66 .def_408))
(define-fun .def_80 () Bool (= .def_64 C1_12))
(define-fun .def_410 () Bool (and .def_80 .def_409))
(define-fun .def_82 () Bool (= .def_56 .x.364))
(define-fun .def_411 () Bool (and .def_82 .def_410))
(define-fun .def_84 () Bool (= .def_32 .x.352))
(define-fun .def_412 () Bool (and .def_84 .def_411))
(define-fun .def_418 () Bool (and .def_412 .def_417))
(define-fun .def_428 () Bool (or .def_418 .def_427))
(define-fun .def_405 () Bool (and .def_70 .def_77))
(define-fun .def_406 () Bool (and .loc.8 .def_405))
(define-fun .def_429 () Bool (and .def_406 .def_428))
(define-fun .def_225 () Bool (and .def_64 .def_130))
(define-fun .def_394 () Bool (and .def_72 .def_225))
(define-fun .def_395 () Bool (and .def_139 .def_394))
(define-fun .def_396 () Bool (and .def_143 .def_395))
(define-fun .def_397 () Bool (and .def_147 .def_396))
(define-fun .def_398 () Bool (and .def_66 .def_397))
(define-fun .def_399 () Bool (and .def_68 .def_398))
(define-fun .def_400 () Bool (and .def_80 .def_399))
(define-fun .def_401 () Bool (and .def_82 .def_400))
(define-fun .def_402 () Bool (and .def_84 .def_401))
(define-fun .def_86 () Bool (not .loc.8))
(define-fun .def_403 () Bool (and .def_86 .def_402))
(define-fun .def_404 () Bool (and .def_88 .def_403))
(define-fun .def_430 () Bool (or .def_404 .def_429))
(define-fun .def_345 () Real (* (/ 1 256) (to_real .def_36)))
(define-fun .def_346 () Int (to_int .def_345))
(define-fun .def_348 () Int (* (- 256) .def_346))
(define-fun .def_349 () Int (+ .def_36 .def_348))
(define-fun .def_352 () Bool (<= 48 .def_349))
(define-fun .def_391 () Bool (not .def_352))
(define-fun .def_350 () Bool (<= .def_349 57))
(define-fun .def_389 () Bool (not .def_350))
(define-fun .def_390 () Bool (or .def_64 .def_389))
(define-fun .def_392 () Bool (or .def_390 .def_391))
(define-fun .def_330 () Bool (and .def_72 .def_130))
(define-fun .def_331 () Bool (and .def_139 .def_330))
(define-fun .def_332 () Bool (and .def_143 .def_331))
(define-fun .def_333 () Bool (and .def_147 .def_332))
(define-fun .def_334 () Bool (and .def_66 .def_333))
(define-fun .def_335 () Bool (and .def_68 .def_334))
(define-fun .def_384 () Bool (and .def_80 .def_335))
(define-fun .def_385 () Bool (and .def_82 .def_384))
(define-fun .def_386 () Bool (and .def_84 .def_385))
(define-fun .def_387 () Bool (and .def_86 .def_386))
(define-fun .def_388 () Bool (and .def_88 .def_387))
(define-fun .def_393 () Bool (and .def_388 .def_392))
(define-fun .def_431 () Bool (or .def_393 .def_430))
(define-fun .def_132 () Bool (= .def_36 .x.354))
(define-fun .def_129 () Bool (= .def_34 .x.353))
(define-fun .def_377 () Bool (and .def_129 .def_132))
(define-fun .def_202 () Bool (= .def_40 .x.356))
(define-fun .def_378 () Bool (and .def_202 .def_377))
(define-fun .def_136 () Bool (= .def_42 .x.357))
(define-fun .def_379 () Bool (and .def_136 .def_378))
(define-fun .def_141 () Bool (= .def_50 .x.361))
(define-fun .def_380 () Bool (and .def_141 .def_379))
(define-fun .def_149 () Bool (= .def_60 .x.366))
(define-fun .def_381 () Bool (and .def_149 .def_380))
(define-fun .def_382 () Bool (and .loc.9 .def_381))
(define-fun .def_216 () Bool (not .loc.7))
(define-fun .def_383 () Bool (and .def_216 .def_382))
(define-fun .def_432 () Bool (and .def_383 .def_431))
(define-fun .def_270 () Int (+ .x.357 .def_48))
(define-fun .def_188 () (Array Int Int) (select .def_14 .def_58))
(define-fun .def_372 () Int (select .def_188 .def_270))
(define-fun .def_373 () Bool (= .x.354 .def_372))
(define-fun .def_163 () Int (* (- 1) .x.356))
(define-fun .def_368 () Int (+ .def_163 .x.361))
(define-fun .def_366 () Int (* 10 .def_40))
(define-fun .def_369 () Int (+ .def_366 .def_368))
(define-fun .def_370 () Bool (= .def_369 0))
(define-fun .def_358 () Int (* (- 1) .x.361))
(define-fun .def_361 () Int (+ .def_358 .def_348))
(define-fun .def_362 () Int (+ .def_36 .def_361))
(define-fun .def_363 () Bool (= .def_362 48))
(define-fun .def_354 () Int (* (- 1) .x.357))
(define-fun .def_355 () Int (+ .def_42 .def_354))
(define-fun .def_356 () Bool (= .def_355 (- 1)))
(define-fun .def_353 () Bool (and .def_350 .def_352))
(define-fun .def_357 () Bool (and .def_353 .def_356))
(define-fun .def_364 () Bool (and .def_357 .def_363))
(define-fun .def_371 () Bool (and .def_364 .def_370))
(define-fun .def_374 () Bool (and .def_371 .def_373))
(define-fun .def_375 () Bool (or .def_64 .def_374))
(define-fun .def_336 () Bool (and .loc.7 .def_335))
(define-fun .def_337 () Bool (and .loc.8 .def_336))
(define-fun .def_338 () Bool (and .def_80 .def_337))
(define-fun .def_339 () Bool (and .def_82 .def_338))
(define-fun .def_340 () Bool (and .def_84 .def_339))
(define-fun .def_341 () Bool (and .def_88 .def_340))
(define-fun .def_90 () Bool (not .loc.9))
(define-fun .def_342 () Bool (and .def_90 .def_341))
(define-fun .def_376 () Bool (and .def_342 .def_375))
(define-fun .def_433 () Bool (or .def_376 .def_432))
(define-fun .def_327 () Bool (not .def_326))
(define-fun .def_328 () Bool (or C1_12 .def_327))
(define-fun .def_308 () Bool (and .def_130 .def_289))
(define-fun .def_309 () Bool (and .def_129 .def_308))
(define-fun .def_310 () Bool (and .def_132 .def_309))
(define-fun .def_311 () Bool (and .def_202 .def_310))
(define-fun .def_312 () Bool (and .def_136 .def_311))
(define-fun .def_313 () Bool (and .def_72 .def_312))
(define-fun .def_314 () Bool (and .def_139 .def_313))
(define-fun .def_315 () Bool (and .def_141 .def_314))
(define-fun .def_316 () Bool (and .def_143 .def_315))
(define-fun .def_317 () Bool (and .def_147 .def_316))
(define-fun .def_318 () Bool (and .def_149 .def_317))
(define-fun .def_319 () Bool (and .def_70 .def_318))
(define-fun .def_320 () Bool (and .def_75 .def_319))
(define-fun .def_321 () Bool (and .def_77 .def_320))
(define-fun .def_322 () Bool (and .loc.7 .def_321))
(define-fun .def_323 () Bool (and .loc.9 .def_322))
(define-fun .def_324 () Bool (and .def_80 .def_323))
(define-fun .def_325 () Bool (and .def_86 .def_324))
(define-fun .def_329 () Bool (and .def_325 .def_328))
(define-fun .def_434 () Bool (or .def_329 .def_433))
(define-fun .def_285 () Bool (and .def_64 C1_12))
(define-fun .def_290 () Bool (and .def_285 .def_289))
(define-fun .def_291 () Bool (and .def_130 .def_290))
(define-fun .def_292 () Bool (and .def_129 .def_291))
(define-fun .def_293 () Bool (and .def_132 .def_292))
(define-fun .def_294 () Bool (and .def_202 .def_293))
(define-fun .def_295 () Bool (and .def_136 .def_294))
(define-fun .def_296 () Bool (and .def_72 .def_295))
(define-fun .def_297 () Bool (and .def_139 .def_296))
(define-fun .def_298 () Bool (and .def_141 .def_297))
(define-fun .def_299 () Bool (and .def_143 .def_298))
(define-fun .def_300 () Bool (and .def_147 .def_299))
(define-fun .def_301 () Bool (and .def_149 .def_300))
(define-fun .def_302 () Bool (and .def_70 .def_301))
(define-fun .def_303 () Bool (and .def_75 .def_302))
(define-fun .def_304 () Bool (and .def_77 .def_303))
(define-fun .def_305 () Bool (and .loc.7 .def_304))
(define-fun .def_306 () Bool (and .loc.9 .def_305))
(define-fun .def_307 () Bool (and .def_86 .def_306))
(define-fun .def_435 () Bool (or .def_307 .def_434))
(define-fun .def_134 () Bool (= .def_38 .x.355))
(define-fun .def_73 () Bool (= .def_14 .x.343))
(define-fun .def_282 () Bool (and .def_73 .def_134))
(define-fun .def_145 () Bool (= .def_54 .x.363))
(define-fun .def_283 () Bool (and .def_145 .def_282))
(define-fun .def_151 () Bool (= .def_62 .x.367))
(define-fun .def_284 () Bool (and .def_151 .def_283))
(define-fun .def_436 () Bool (and .def_284 .def_435))
(define-fun .def_275 () Int (+ .def_48 10))
(define-fun .def_276 () (Array Int Int) (store .def_188 .def_275 0))
(define-fun .def_277 () (Array Int (Array Int Int)) (store .def_14 .def_58 .def_276))
(define-fun .def_278 () Bool (= .x.343 .def_277))
(define-fun .def_271 () (Array Int Int) (select .x.343 .def_58))
(define-fun .def_272 () Int (select .def_271 .def_270))
(define-fun .def_273 () Bool (= .x.354 .def_272))
(define-fun .def_268 () Bool (= .x.355 .def_58))
(define-fun .def_266 () Bool (= .x.357 0))
(define-fun .def_264 () Bool (= .def_48 .x.367))
(define-fun .def_107 () Bool (= .x.356 0))
(define-fun .def_265 () Bool (and .def_107 .def_264))
(define-fun .def_267 () Bool (and .def_265 .def_266))
(define-fun .def_269 () Bool (and .def_267 .def_268))
(define-fun .def_274 () Bool (and .def_269 .def_273))
(define-fun .def_279 () Bool (and .def_274 .def_278))
(define-fun .def_280 () Bool (or .def_64 .def_279))
(define-fun .def_131 () Bool (and .def_129 .def_130))
(define-fun .def_249 () Bool (and .def_72 .def_131))
(define-fun .def_250 () Bool (and .def_139 .def_249))
(define-fun .def_251 () Bool (and .def_141 .def_250))
(define-fun .def_252 () Bool (and .def_143 .def_251))
(define-fun .def_253 () Bool (and .def_147 .def_252))
(define-fun .def_254 () Bool (and .def_149 .def_253))
(define-fun .def_255 () Bool (and .def_68 .def_254))
(define-fun .def_256 () Bool (and .def_75 .def_255))
(define-fun .def_257 () Bool (and .loc.7 .def_256))
(define-fun .def_258 () Bool (and .loc.8 .def_257))
(define-fun .def_259 () Bool (and .def_80 .def_258))
(define-fun .def_260 () Bool (and .def_82 .def_259))
(define-fun .def_261 () Bool (and .def_84 .def_260))
(define-fun .def_262 () Bool (and .def_88 .def_261))
(define-fun .def_263 () Bool (and .def_90 .def_262))
(define-fun .def_281 () Bool (and .def_263 .def_280))
(define-fun .def_437 () Bool (or .def_281 .def_436))
(define-fun .def_226 () Bool (and .def_73 .def_225))
(define-fun .def_227 () Bool (and .def_129 .def_226))
(define-fun .def_228 () Bool (and .def_132 .def_227))
(define-fun .def_229 () Bool (and .def_134 .def_228))
(define-fun .def_230 () Bool (and .def_202 .def_229))
(define-fun .def_231 () Bool (and .def_136 .def_230))
(define-fun .def_232 () Bool (and .def_72 .def_231))
(define-fun .def_233 () Bool (and .def_139 .def_232))
(define-fun .def_234 () Bool (and .def_141 .def_233))
(define-fun .def_235 () Bool (and .def_143 .def_234))
(define-fun .def_236 () Bool (and .def_145 .def_235))
(define-fun .def_237 () Bool (and .def_147 .def_236))
(define-fun .def_238 () Bool (and .def_149 .def_237))
(define-fun .def_239 () Bool (and .def_151 .def_238))
(define-fun .def_240 () Bool (and .def_66 .def_239))
(define-fun .def_241 () Bool (and .def_77 .def_240))
(define-fun .def_242 () Bool (and .loc.8 .def_241))
(define-fun .def_243 () Bool (and .def_216 .def_242))
(define-fun .def_244 () Bool (and .def_80 .def_243))
(define-fun .def_245 () Bool (and .def_82 .def_244))
(define-fun .def_246 () Bool (and .def_84 .def_245))
(define-fun .def_247 () Bool (and .def_88 .def_246))
(define-fun .def_248 () Bool (and .def_90 .def_247))
(define-fun .def_438 () Bool (or .def_248 .def_437))
(define-fun .def_169 () Real (* (/ 1 4294967296) (to_real .def_40)))
(define-fun .def_170 () Int (to_int .def_169))
(define-fun .def_172 () Int (* (- 4294967296) .def_170))
(define-fun .def_173 () Int (+ .def_40 .def_172))
(define-fun .def_175 () Bool (<= 10 .def_173))
(define-fun .def_223 () Bool (or .def_64 .def_175))
(define-fun .def_198 () Bool (and .def_73 .def_130))
(define-fun .def_199 () Bool (and .def_129 .def_198))
(define-fun .def_200 () Bool (and .def_132 .def_199))
(define-fun .def_201 () Bool (and .def_134 .def_200))
(define-fun .def_203 () Bool (and .def_201 .def_202))
(define-fun .def_204 () Bool (and .def_136 .def_203))
(define-fun .def_205 () Bool (and .def_72 .def_204))
(define-fun .def_206 () Bool (and .def_139 .def_205))
(define-fun .def_207 () Bool (and .def_141 .def_206))
(define-fun .def_208 () Bool (and .def_143 .def_207))
(define-fun .def_209 () Bool (and .def_145 .def_208))
(define-fun .def_210 () Bool (and .def_147 .def_209))
(define-fun .def_211 () Bool (and .def_149 .def_210))
(define-fun .def_212 () Bool (and .def_151 .def_211))
(define-fun .def_213 () Bool (and .def_66 .def_212))
(define-fun .def_214 () Bool (and .def_77 .def_213))
(define-fun .def_215 () Bool (and .loc.8 .def_214))
(define-fun .def_217 () Bool (and .def_215 .def_216))
(define-fun .def_218 () Bool (and .def_80 .def_217))
(define-fun .def_219 () Bool (and .def_82 .def_218))
(define-fun .def_220 () Bool (and .def_84 .def_219))
(define-fun .def_221 () Bool (and .def_88 .def_220))
(define-fun .def_222 () Bool (and .def_90 .def_221))
(define-fun .def_224 () Bool (and .def_222 .def_223))
(define-fun .def_439 () Bool (or .def_224 .def_438))
(define-fun .def_196 () Bool (= .def_30 .x.351))
(define-fun .def_195 () Bool (= .def_44 .x.358))
(define-fun .def_197 () Bool (and .def_195 .def_196))
(define-fun .def_440 () Bool (and .def_197 .def_439))
(define-fun .def_183 () Int (+ (- 4294967296) .def_173))
(define-fun .def_185 () Bool (<= .def_173 2147483647))
(define-fun .def_186 () Int (ite .def_185 .def_173 .def_183))
(define-fun .def_187 () Int (+ .def_48 .def_186))
(define-fun .def_189 () (Array Int Int) (store .def_188 .def_187 .def_30))
(define-fun .def_190 () (Array Int (Array Int Int)) (store .def_14 .def_58 .def_189))
(define-fun .def_191 () Bool (= .x.343 .def_190))
(define-fun .def_181 () Bool (<= (- 128) .def_30))
(define-fun .def_178 () Bool (<= .def_30 127))
(define-fun .def_176 () Bool (not .def_175))
(define-fun .def_179 () Bool (and .def_176 .def_178))
(define-fun .def_182 () Bool (and .def_179 .def_181))
(define-fun .def_192 () Bool (and .def_182 .def_191))
(define-fun .def_193 () Bool (or .def_64 .def_192))
(define-fun .def_164 () Int (+ .def_40 .def_163))
(define-fun .def_165 () Bool (= .def_164 (- 1)))
(define-fun .def_166 () Bool (or C1_12 .def_165))
(define-fun .def_133 () Bool (and .def_131 .def_132))
(define-fun .def_135 () Bool (and .def_133 .def_134))
(define-fun .def_137 () Bool (and .def_135 .def_136))
(define-fun .def_138 () Bool (and .def_72 .def_137))
(define-fun .def_140 () Bool (and .def_138 .def_139))
(define-fun .def_142 () Bool (and .def_140 .def_141))
(define-fun .def_144 () Bool (and .def_142 .def_143))
(define-fun .def_146 () Bool (and .def_144 .def_145))
(define-fun .def_148 () Bool (and .def_146 .def_147))
(define-fun .def_150 () Bool (and .def_148 .def_149))
(define-fun .def_152 () Bool (and .def_150 .def_151))
(define-fun .def_153 () Bool (and .def_66 .def_152))
(define-fun .def_154 () Bool (and .def_77 .def_153))
(define-fun .def_155 () Bool (and .loc.7 .def_154))
(define-fun .def_156 () Bool (and .def_80 .def_155))
(define-fun .def_157 () Bool (and .def_82 .def_156))
(define-fun .def_158 () Bool (and .def_84 .def_157))
(define-fun .def_159 () Bool (and .def_86 .def_158))
(define-fun .def_160 () Bool (and .def_88 .def_159))
(define-fun .def_161 () Bool (and .def_90 .def_160))
(define-fun .def_167 () Bool (and .def_161 .def_166))
(define-fun .def_194 () Bool (and .def_167 .def_193))
(define-fun .def_441 () Bool (or .def_194 .def_440))
(define-fun .def_127 () Bool (= .def_26 .x.349))
(define-fun .def_125 () Bool (= .def_18 .x.345))
(define-fun .def_124 () Bool (= .def_22 .x.347))
(define-fun .def_126 () Bool (and .def_124 .def_125))
(define-fun .def_128 () Bool (and .def_126 .def_127))
(define-fun .def_442 () Bool (and .def_128 .def_441))
(define-fun .def_119 () Bool (= .x.349 0))
(define-fun .def_118 () Bool (= .x.345 0))
(define-fun .def_120 () Bool (and .def_118 .def_119))
(define-fun .def_116 () (Array Int Int) (store .def_10 0 0))
(define-fun .def_117 () Bool (= .def_93 .def_116))
(define-fun .def_121 () Bool (and .def_117 .def_120))
(define-fun .def_122 () Bool (or .def_64 .def_121))
(define-fun .def_105 () Bool (<= .x.340 .x.365))
(define-fun .def_106 () Bool (not .def_105))
(define-fun .def_108 () Bool (and .def_106 .def_107))
(define-fun .def_103 () Bool (= .x.365 0))
(define-fun .def_104 () Bool (not .def_103))
(define-fun .def_109 () Bool (and .def_104 .def_108))
(define-fun .def_102 () Bool (= .x.360 0))
(define-fun .def_110 () Bool (and .def_102 .def_109))
(define-fun .def_100 () Int (select .def_93 .x.365))
(define-fun .def_101 () Bool (= .def_100 0))
(define-fun .def_111 () Bool (and .def_101 .def_110))
(define-fun .def_97 () (Array Int Int) (store .def_22 .x.365 11))
(define-fun .def_98 () Bool (= .x.347 .def_97))
(define-fun .def_112 () Bool (and .def_98 .def_111))
(define-fun .def_94 () (Array Int Int) (store .def_93 .x.365 1))
(define-fun .def_95 () Bool (= .x.341 .def_94))
(define-fun .def_113 () Bool (and .def_95 .def_112))
(define-fun .def_114 () Bool (or C1_12 .def_113))
(define-fun .def_74 () Bool (and .def_72 .def_73))
(define-fun .def_76 () Bool (and .def_74 .def_75))
(define-fun .def_78 () Bool (and .def_76 .def_77))
(define-fun .def_79 () Bool (and .loc.7 .def_78))
(define-fun .def_81 () Bool (and .def_79 .def_80))
(define-fun .def_83 () Bool (and .def_81 .def_82))
(define-fun .def_85 () Bool (and .def_83 .def_84))
(define-fun .def_87 () Bool (and .def_85 .def_86))
(define-fun .def_89 () Bool (and .def_87 .def_88))
(define-fun .def_91 () Bool (and .def_89 .def_90))
(define-fun .def_115 () Bool (and .def_91 .def_114))
(define-fun .def_123 () Bool (and .def_115 .def_122))
(define-fun .def_443 () Bool (or .def_123 .def_442))
(define-fun .def_455 () Bool (! (and .def_443 .def_454) :trans true))
(define-fun .def_470 () Bool (and .def_68 .def_75))
(define-fun .def_471 () Bool (and .def_70 .def_470))
(define-fun .def_472 () Bool (and .def_64 .def_471))
(define-fun .def_473 () Bool (! (not .def_472) :invar-property 0))
(assert true)
